
Gurobi 11.0.0 (win64) logging started Tue May 21 17:33:36 2024

Set parameter LogFile to value "./Results/StripPacking-ManyRuns/Logs/RU-111-StripPacking-15-2.log"
Set parameter TimeLimit to value 3600
Set parameter Cuts to value 1
Set parameter Presolve to value 1
Set parameter Heuristics to value 1
Set parameter LPWarmStart to value 2
Gurobi Optimizer version 11.0.0 build v11.0.0rc2 (win64 - Windows 10.0 (19045.2))

CPU model: Intel(R) Core(TM) i9-10980XE CPU @ 3.00GHz, instruction set [SSE2|AVX|AVX2|AVX512]
Thread count: 18 physical cores, 36 logical processors, using up to 18 threads

Optimize a model with 1590 rows, 451 columns and 4230 nonzeros
Model fingerprint: 0x21125acd
Variable types: 31 continuous, 420 integer (420 binary)
Coefficient statistics:
  Matrix range     [1e+00, 1e+04]
  Objective range  [1e+00, 1e+00]
  Bounds range     [1e+00, 1e+04]
  RHS range        [1e+00, 1e+04]

Warning: Completing partial solution with 420 unfixed non-continuous variables out of 420
User MIP start produced solution with objective 72 (0.00s)
User MIP start produced solution with objective 72 (0.00s)
Loaded user MIP start with objective 72

Presolve removed 210 rows and 0 columns
Presolve time: 0.02s
Presolved: 1380 rows, 451 columns, 4394 nonzeros
Variable types: 31 continuous, 420 integer (420 binary)

Root relaxation: objective 3.700000e+01, 366 iterations, 0.00 seconds (0.01 work units)

    Nodes    |    Current Node    |     Objective Bounds      |     Work
 Expl Unexpl |  Obj  Depth IntInf | Incumbent    BestBd   Gap | It/Node Time

     0     0   37.00000    0   30   72.00000   37.00000  48.6%     -    0s
H    0     0                      71.0000000   37.00000  47.9%     -    0s
     0     0   37.00000    0   53   71.00000   37.00000  47.9%     -    0s
     0     0   37.00000    0   50   71.00000   37.00000  47.9%     -    0s
     0     0   37.00000    0   32   71.00000   37.00000  47.9%     -    0s
     0     0   37.00000    0   34   71.00000   37.00000  47.9%     -    0s
     0     0   37.00000    0   24   71.00000   37.00000  47.9%     -    0s
H    0     0                      70.0000000   37.00000  47.1%     -    0s
     0     0   37.00000    0   27   70.00000   37.00000  47.1%     -    0s
     0     0   37.00000    0   29   70.00000   37.00000  47.1%     -    0s
H    0     0                      69.0000000   37.00000  46.4%     -    0s
     0     0   37.00000    0   29   69.00000   37.00000  46.4%     -    0s
     0     0   37.00000    0   30   69.00000   37.00000  46.4%     -    0s
     0     0   37.00000    0   20   69.00000   37.00000  46.4%     -    0s
     0     2   37.00000    0   18   69.00000   37.00000  46.4%     -    0s
H   81    84                      61.0000000   37.00000  39.3%  25.6    0s
H  162   145                      59.0000000   37.00000  37.3%  18.2    0s
H  207   199                      57.0000000   37.00000  35.1%  22.4    1s
H  216   199                      56.0000000   37.00000  33.9%  22.4    1s
H  366   335                      55.0000000   37.00000  32.7%  27.0    2s
H  644   574                      55.0000000   37.00000  32.7%  26.5    4s
H  645   574                      54.0000000   37.00000  31.5%  26.5    4s
H  656   574                      52.0000000   37.00000  28.8%  27.6    4s
  1014   923   37.00000   11   16   52.00000   37.00000  28.8%  27.0    5s
H 1079   923                      52.0000000   37.00000  28.8%  26.3    5s
H 1165   923                      50.0000000   37.00000  26.0%  26.1    5s
H 1302  1163                      50.0000000   37.00000  26.0%  26.4    7s
H 1636  1163                      49.0000000   37.00000  24.5%  26.3    7s
H 1979  1783                      49.0000000   37.00000  24.5%  24.6    8s
  3845  1883   37.00000   19   44   49.00000   37.00000  24.5%  25.3   10s
  4177  1936   46.00000   27   32   49.00000   37.00000  24.5%  26.6   15s
  4352  1978   47.00000   30   30   49.00000   37.00000  24.5%  27.8   20s
  4964  1917   47.00000   25   37   49.00000   37.00000  24.5%  30.5   25s
  5632  1802 infeasible   27        49.00000   37.00000  24.5%  33.7   30s
  6982  1632   37.00000   29   38   49.00000   37.00000  24.5%  38.7   35s
H 8225  1231                      48.0000000   37.00000  22.9%  42.3   36s
H 8336  1169                      48.0000000   37.00000  22.9%  42.5   38s
  8816  1086 infeasible   31        48.00000   37.00000  22.9%  44.3   41s
  9706  1178   43.00000   35   30   48.00000   37.00000  22.9%  46.4   46s
 11605  1411 infeasible   40        48.00000   37.00000  22.9%  50.7   50s
 12857  1572   39.00000   26   32   48.00000   37.00000  22.9%  52.6   56s
 14639  1646 infeasible   37        48.00000   37.00000  22.9%  55.6   62s
 15415  1807   46.00000   29   41   48.00000   37.00000  22.9%  56.0   66s
 16818  1906   41.00000   31   38   48.00000   37.00000  22.9%  57.1   71s
 18802  2227   46.00000   35   42   48.00000   37.00000  22.9%  58.7   76s
 19966  2290 infeasible   35        48.00000   37.00000  22.9%  59.3   81s
 21095  2307   39.00000   24   36   48.00000   37.00000  22.9%  59.3   85s
 21611  2297 infeasible   34        48.00000   37.00000  22.9%  59.8   90s
 21798  2282   39.00000   19   37   48.00000   37.00000  22.9%  59.9   98s
 21831  2348   39.00000   20   39   48.00000   37.00000  22.9%  59.9  100s
 23332  2289 infeasible   27        48.00000   38.00000  20.8%  59.7  110s
*27026  1930              34      47.0000000   39.00000  17.0%  59.1  110s
 27286  1904 infeasible   30        47.00000   39.00000  17.0%  59.1  116s
 28246  1909 infeasible   37        47.00000   39.00000  17.0%  59.0  121s
 28277  1831 infeasible   36        47.00000   39.00000  17.0%  59.0  125s
 29690  1768 infeasible   33        47.00000   41.00000  12.8%  59.1  132s
 31063  1774   46.00000   30   44   47.00000   41.00000  12.8%  58.6  137s
 31211  1728   46.00000   31   27   47.00000   41.00000  12.8%  58.6  140s
 33751  1358   46.00000   33   28   47.00000   43.00000  8.51%  58.7  147s
 35309  1371   46.00000   35   26   47.00000   43.00000  8.51%  58.3  155s
 37215  1133   46.00000   29   25   47.00000   43.00000  8.51%  57.5  163s
 37242   922   46.00000   30   20   47.00000   43.00000  8.51%  57.5  170s
 40905   918 infeasible   45        47.00000   43.00000  8.51%  57.2  176s
 41059   888   46.00000   35   40   47.00000   46.00000  2.13%  57.2  185s
 42319   806   46.00000   28   20   47.00000   46.00000  2.13%  56.8  195s
 42360   665   46.00000   29   19   47.00000   46.00000  2.13%  56.8  200s
 44440   659   46.00000   32   28   47.00000   46.00000  2.13%  56.4  206s
 44537   573 infeasible   26        47.00000   46.00000  2.13%  56.4  211s
 46098   541 infeasible   31        47.00000   46.00000  2.13%  55.9  217s
 46692   388   46.00000   32   29   47.00000   46.00000  2.13%  55.8  221s
 48805   310 infeasible   25        47.00000   46.00000  2.13%  55.4  227s
 49394   174   46.00000   24   28   47.00000   46.00000  2.13%  55.3  231s
 51162   171   46.00000   36   20   47.00000   46.00000  2.13%  55.0  237s
 51343   160 infeasible   37        47.00000   46.00000  2.13%  55.0  242s
 51726    45 infeasible   27        47.00000   46.00000  2.13%  55.0  245s
 53128    48 infeasible   27        47.00000   46.00000  2.13%  54.9  251s
 53748     3 infeasible   27        47.00000   46.00000  2.13%  54.8  256s

Cutting planes:
  Learned: 1961
  Gomory: 11
  Cover: 76
  Implied bound: 9
  Clique: 14
  MIR: 173
  StrongCG: 10
  Flow cover: 268
  GUB cover: 38
  Zero half: 2
  Relax-and-lift: 66

Explored 53805 nodes (2954775 simplex iterations) in 256.36 seconds (247.05 work units)
Thread count was 18 (of 36 available processors)

Solution count 10: 47 47 48 ... 52

Optimal solution found (tolerance 1.00e-04)
Best objective 4.700000000000e+01, best bound 4.700000000000e+01, gap 0.0000%

Gurobi 11.0.0 (win64) logging started Tue Jun 18 11:33:40 2024

Set parameter LogFile to value "./Results/StripPacking-ManyRuns/Logs/RU-111-StripPacking-15-2.log"
Set parameter TimeLimit to value 3600
Set parameter Cuts to value 1
Set parameter Presolve to value 1
Set parameter Heuristics to value 1
Set parameter LPWarmStart to value 2
Gurobi Optimizer version 11.0.0 build v11.0.0rc2 (win64 - Windows 10.0 (19045.2))

CPU model: Intel(R) Core(TM) i9-10980XE CPU @ 3.00GHz, instruction set [SSE2|AVX|AVX2|AVX512]
Thread count: 18 physical cores, 36 logical processors, using up to 18 threads

Optimize a model with 1590 rows, 451 columns and 4230 nonzeros
Model fingerprint: 0x234328c8
Variable types: 31 continuous, 420 integer (420 binary)
Coefficient statistics:
  Matrix range     [1e+00, 1e+04]
  Objective range  [1e+00, 1e+00]
  Bounds range     [1e+00, 1e+04]
  RHS range        [1e+00, 1e+04]

Warning: Completing partial solution with 420 unfixed non-continuous variables out of 420
User MIP start produced solution with objective 78.1 (0.02s)
Loaded user MIP start with objective 78.1

Presolve removed 210 rows and 0 columns
Presolve time: 0.00s
Presolved: 1380 rows, 451 columns, 4394 nonzeros
Variable types: 31 continuous, 420 integer (420 binary)

Root relaxation: objective 4.500000e+01, 276 iterations, 0.00 seconds (0.01 work units)

    Nodes    |    Current Node    |     Objective Bounds      |     Work
 Expl Unexpl |  Obj  Depth IntInf | Incumbent    BestBd   Gap | It/Node Time

     0     0   45.00000    0   10   78.10000   45.00000  42.4%     -    0s
H    0     0                      77.0000000   45.00000  41.6%     -    0s
H    0     0                      76.0000000   45.00000  40.8%     -    0s
H    0     0                      70.0000000   45.00000  35.7%     -    0s
     0     0   45.00000    0   19   70.00000   45.00000  35.7%     -    0s
H    0     0                      67.0000000   45.00000  32.8%     -    0s
H    0     0                      66.0000000   45.00000  31.8%     -    0s
H    0     0                      64.0000000   45.00000  29.7%     -    0s
     0     0   45.00000    0   11   64.00000   45.00000  29.7%     -    0s
     0     0   45.00000    0   11   64.00000   45.00000  29.7%     -    0s
     0     0   45.00000    0   11   64.00000   45.00000  29.7%     -    0s
     0     0   45.00000    0   11   64.00000   45.00000  29.7%     -    0s
     0     0   45.00000    0   13   64.00000   45.00000  29.7%     -    0s
H    0     0                      58.0000000   45.00000  22.4%     -    0s
     0     0   45.00000    0   22   58.00000   45.00000  22.4%     -    0s
     0     0   45.00000    0   19   58.00000   45.00000  22.4%     -    0s
     0     2   45.00000    0   12   58.00000   45.00000  22.4%     -    0s
H    8    15                      57.0000000   45.00000  21.1%  16.5    0s
H   86    96                      56.0000000   45.00000  19.6%  13.0    0s
H  457   457                      54.0000000   45.00000  16.7%  15.3    2s
H  517   828                      52.0000000   45.00000  13.5%  15.1    3s
H 1004  1377                      52.0000000   45.00000  13.5%  15.7    4s
  1942  2262   46.00000   40   53   52.00000   45.00000  13.5%  13.6    6s
  4186  2372   51.00000   22   15   52.00000   45.00000  13.5%   1.4   10s
H 4288  2313                      49.0000000   45.00000  8.16%   2.2   12s
  4364  2333   48.00000   26   37   49.00000   45.00000  8.16%   3.3   15s
  5184  2296   45.00000   23   16   49.00000   45.00000  8.16%  10.4   22s
  5645  2412 infeasible   34        49.00000   45.00000  8.16%  13.3   26s
  6824  2216   47.00000   31   20   49.00000   45.00000  8.16%  18.8   31s
  7692  2063   47.00000   35   12   49.00000   45.00000  8.16%  21.6   35s
* 8003  1718              41      48.0000000   45.00000  6.25%  22.7   37s
  9753  1223 infeasible   43        48.00000   45.00000  6.25%  28.5   40s
 10618  1126 infeasible   31        48.00000   45.00000  6.25%  30.4   45s
 11896  1380 infeasible   36        48.00000   45.00000  6.25%  32.6   52s
 13414  1440 infeasible   32        48.00000   45.00000  6.25%  35.2   55s
 16133  1637 infeasible   33        48.00000   45.00000  6.25%  38.4   60s
 18455  1779 infeasible   38        48.00000   45.00000  6.25%  40.4   65s
 21150  1809 infeasible   49        48.00000   45.00000  6.25%  42.0   73s
 21208  1807 infeasible   50        48.00000   45.00000  6.25%  42.1   76s
 21330  1921   45.00000   33   30   48.00000   45.00000  6.25%  42.1   81s
 22133  1989   45.00000   30   23   48.00000   45.00000  6.25%  42.2   86s
 22277  2068   45.00000   34   11   48.00000   45.00000  6.25%  42.2   93s
 22517  2272   45.00000   37   22   48.00000   45.00000  6.25%  42.2   95s
 23137  2137   46.00000   39   23   48.00000   45.00000  6.25%  42.3  101s
 24177  2116   47.00000   35   32   48.00000   45.00000  6.25%  42.8  106s
 25659  1743 infeasible   36        48.00000   45.00000  6.25%  43.5  111s
 27340  1276   46.00000   42   21   48.00000   45.00000  6.25%  44.1  117s
 27382  1378   46.00000   44   19   48.00000   45.00000  6.25%  44.1  122s
 29523  1554 infeasible   47        48.00000   45.00000  6.25%  44.5  126s
 31121  1653 infeasible   54        48.00000   45.00000  6.25%  45.1  130s
 33442  1794   47.00000   45   16   48.00000   45.00000  6.25%  46.3  135s
 37266  1827   45.00000   32   31   48.00000   45.00000  6.25%  48.0  142s
 38502  2012   46.00000   42   27   48.00000   45.00000  6.25%  47.9  146s
 41171  2214   46.00000   40   16   48.00000   45.00000  6.25%  49.1  150s
 42195  2245   46.00000   42   22   48.00000   45.00000  6.25%  49.4  156s
 43139  2320   45.00000   36    5   48.00000   45.00000  6.25%  49.6  160s
 44982  2320   47.00000   45   14   48.00000   45.00000  6.25%  50.3  165s
 45413  2515   46.00000   37   21   48.00000   45.00000  6.25%  50.3  170s
 50638  2576   45.00000   40   20   48.00000   45.00000  6.25%  52.2  177s
 50883  2529   45.00000   41   21   48.00000   45.00000  6.25%  52.2  180s
 52201  2628   45.00000   40   32   48.00000   45.00000  6.25%  52.4  186s
 54367  2606 infeasible   45        48.00000   45.00000  6.25%  53.2  193s
 54526  2785 infeasible   45        48.00000   45.00000  6.25%  53.2  196s
 56034  2775   45.00000   38   24   48.00000   45.00000  6.25%  53.2  204s
 56774  2638 infeasible   39        48.00000   45.00000  6.25%  53.5  207s
 58292  2626 infeasible   45        48.00000   45.00000  6.25%  53.8  212s
 59343  2658   45.00000   44    7   48.00000   45.00000  6.25%  54.1  224s
 63896  2674 infeasible   57        48.00000   45.00000  6.25%  54.7  229s
 63958  3003   46.00000   56   36   48.00000   45.00000  6.25%  54.7  232s
 66155  3007 infeasible   44        48.00000   45.00000  6.25%  54.5  239s
 66189  2483 infeasible   44        48.00000   45.00000  6.25%  54.5  243s
 68620  2484   46.00000   42   17   48.00000   45.00000  6.25%  54.6  250s
 71261  2367   46.00000   38   40   48.00000   46.00000  4.17%  54.5  262s
 71302  2111 infeasible   39        48.00000   46.00000  4.17%  54.5  266s
 73332  2158 infeasible   53        48.00000   46.00000  4.17%  54.2  273s
 74701  2034 infeasible   47        48.00000   46.00000  4.17%  54.1  281s
 78140  1999 infeasible   44        48.00000   46.00000  4.17%  54.2  288s
 78765  2005   46.00000   46   20   48.00000   46.00000  4.17%  54.1  293s
 78937  2006 infeasible   41        48.00000   46.00000  4.17%  54.1  297s
 81443  1965   46.00000   51   17   48.00000   46.00000  4.17%  53.5  304s
 82140  1673   46.00000   52   23   48.00000   46.00000  4.17%  53.6  327s
 89230  1674 infeasible   41        48.00000   46.00000  4.17%  53.7  335s
 89263  1538 infeasible   51        48.00000   46.00000  4.17%  53.7  346s
 93491  1537 infeasible   44        48.00000   46.00000  4.17%  53.6  353s
 93527  1422   46.00000   43   32   48.00000   46.00000  4.17%  53.6  357s
 96124  1419 infeasible   42        48.00000   46.00000  4.17%  53.6  364s
 96159  1295 infeasible   47        48.00000   46.00000  4.17%  53.6  367s
 97127  1311   46.00000   42   22   48.00000   46.00000  4.17%  53.4  371s
 97395  1260 infeasible   50        48.00000   46.00000  4.17%  53.4  375s
 98907  1015   47.00000   38   39   48.00000   46.00000  4.17%  53.2  385s
 100791   697 infeasible   39        48.00000   46.00000  4.17%  53.1  395s
 102585   438 infeasible   45        48.00000   47.00000  2.08%  53.0  403s
 103367    95 infeasible   45        48.00000   47.00000  2.08%  53.0  406s
 104704    90   47.00000   35   45   48.00000   47.00000  2.08%  52.8  411s
 105290    14 infeasible   42        48.00000   47.00000  2.08%  52.8  417s
 105456     0 infeasible   41        48.00000   47.00000  2.08%  52.7  420s

Cutting planes:
  Learned: 2571
  Gomory: 6
  Cover: 60
  Implied bound: 5
  Clique: 21
  MIR: 62
  StrongCG: 14
  Flow cover: 167
  Mod-K: 1
  Relax-and-lift: 49

Explored 105484 nodes (5613735 simplex iterations) in 421.23 seconds (252.65 work units)
Thread count was 18 (of 36 available processors)

Solution count 10: 48 48 49 ... 66

Optimal solution found (tolerance 1.00e-04)
Best objective 4.800000000000e+01, best bound 4.800000000000e+01, gap 0.0000%

Gurobi 11.0.0 (win64) logging started Tue Jul  2 17:23:07 2024

Set parameter LogFile to value "./Results/StripPacking-ManyRuns/Logs/RU-111-StripPacking-15-2.log"
Set parameter TimeLimit to value 3600
Set parameter Cuts to value 1
Set parameter Presolve to value 1
Set parameter Heuristics to value 1
Set parameter LPWarmStart to value 2
Gurobi Optimizer version 11.0.0 build v11.0.0rc2 (win64 - Windows 10.0 (19045.2))

CPU model: Intel(R) Core(TM) i9-10980XE CPU @ 3.00GHz, instruction set [SSE2|AVX|AVX2|AVX512]
Thread count: 18 physical cores, 36 logical processors, using up to 18 threads

Optimize a model with 1590 rows, 451 columns and 4230 nonzeros
Model fingerprint: 0x234328c8
Variable types: 31 continuous, 420 integer (420 binary)
Coefficient statistics:
  Matrix range     [1e+00, 1e+04]
  Objective range  [1e+00, 1e+00]
  Bounds range     [1e+00, 1e+04]
  RHS range        [1e+00, 1e+04]

Warning: Completing partial solution with 420 unfixed non-continuous variables out of 420
User MIP start produced solution with objective 78.1 (0.00s)
Loaded user MIP start with objective 78.1

Presolve removed 210 rows and 0 columns
Presolve time: 0.02s
Presolved: 1380 rows, 451 columns, 4394 nonzeros
Variable types: 31 continuous, 420 integer (420 binary)

Root relaxation: objective 4.500000e+01, 276 iterations, 0.02 seconds (0.01 work units)

    Nodes    |    Current Node    |     Objective Bounds      |     Work
 Expl Unexpl |  Obj  Depth IntInf | Incumbent    BestBd   Gap | It/Node Time

     0     0   45.00000    0   10   78.10000   45.00000  42.4%     -    0s
H    0     0                      77.0000000   45.00000  41.6%     -    0s
H    0     0                      76.0000000   45.00000  40.8%     -    0s
H    0     0                      70.0000000   45.00000  35.7%     -    0s
     0     0   45.00000    0   19   70.00000   45.00000  35.7%     -    0s
H    0     0                      67.0000000   45.00000  32.8%     -    0s
H    0     0                      66.0000000   45.00000  31.8%     -    0s
H    0     0                      64.0000000   45.00000  29.7%     -    0s
     0     0   45.00000    0   11   64.00000   45.00000  29.7%     -    0s
     0     0   45.00000    0   11   64.00000   45.00000  29.7%     -    0s
     0     0   45.00000    0   11   64.00000   45.00000  29.7%     -    0s
     0     0   45.00000    0   11   64.00000   45.00000  29.7%     -    0s
     0     0   45.00000    0   13   64.00000   45.00000  29.7%     -    0s
H    0     0                      58.0000000   45.00000  22.4%     -    0s
     0     0   45.00000    0   22   58.00000   45.00000  22.4%     -    0s
     0     0   45.00000    0   19   58.00000   45.00000  22.4%     -    0s
     0     2   45.00000    0   12   58.00000   45.00000  22.4%     -    0s
H    8    15                      57.0000000   45.00000  21.1%  16.5    0s
H   86    96                      56.0000000   45.00000  19.6%  13.0    0s
H  457   457                      54.0000000   45.00000  16.7%  15.3    2s
H  517   828                      52.0000000   45.00000  13.5%  15.1    4s
   962  1377   45.00000   40   10   52.00000   45.00000  13.5%  15.7    5s
H 1004  1377                      52.0000000   45.00000  13.5%  15.7    5s
  4285  2429   45.00000   25   18   52.00000   45.00000  13.5%   2.1   12s
H 4288  2313                      49.0000000   45.00000  8.16%   2.2   12s
  4535  2343   45.00000   22   28   49.00000   45.00000  8.16%   5.1   16s
  5184  2296   45.00000   23   16   49.00000   45.00000  8.16%  10.4   20s
  6824  2216   47.00000   31   20   49.00000   45.00000  8.16%  18.8   27s
  7692  2063   47.00000   35   12   49.00000   45.00000  8.16%  21.6   33s
* 8003  1718              41      48.0000000   45.00000  6.25%  22.7   34s
  8169  1802   45.00000   29   15   48.00000   45.00000  6.25%  23.1   36s
 10059  1130 infeasible   37        48.00000   45.00000  6.25%  29.3   40s
 11135  1263   45.00000   26   17   48.00000   45.00000  6.25%  31.6   46s
 12923  1413   45.00000   29   19   48.00000   45.00000  6.25%  34.3   50s
 16133  1637 infeasible   33        48.00000   45.00000  6.25%  38.4   56s
 17528  1725 infeasible   27        48.00000   45.00000  6.25%  39.6   60s
 20505  1803 infeasible   40        48.00000   45.00000  6.25%  41.8   65s
 21208  1807 infeasible   50        48.00000   45.00000  6.25%  42.1   71s
 21286  1813   46.00000   33   24   48.00000   45.00000  6.25%  42.1   75s
 22133  1989   45.00000   30   23   48.00000   45.00000  6.25%  42.2   80s
 22277  2068   45.00000   34   11   48.00000   45.00000  6.25%  42.2   86s
 22968  2171   46.00000   39   18   48.00000   45.00000  6.25%  42.3   90s
 23802  2111 infeasible   42        48.00000   45.00000  6.25%  42.7   96s
 24764  2048   47.00000   42   36   48.00000   45.00000  6.25%  43.0  100s
 26023  1701   47.00000   32   25   48.00000   45.00000  6.25%  43.7  105s
 27382  1378   46.00000   44   19   48.00000   45.00000  6.25%  44.1  111s
 29523  1554 infeasible   47        48.00000   45.00000  6.25%  44.5  116s
 31121  1653 infeasible   54        48.00000   45.00000  6.25%  45.1  120s
 33442  1794   47.00000   45   16   48.00000   45.00000  6.25%  46.3  125s
 37266  1827   45.00000   32   31   48.00000   45.00000  6.25%  48.0  131s
 38502  2012   46.00000   42   27   48.00000   45.00000  6.25%  47.9  136s
 41171  2214   46.00000   40   16   48.00000   45.00000  6.25%  49.1  140s
 42195  2245   46.00000   42   22   48.00000   45.00000  6.25%  49.4  145s
 43593  2281 infeasible   42        48.00000   45.00000  6.25%  49.6  151s
 45413  2515   46.00000   37   21   48.00000   45.00000  6.25%  50.3  161s
 50638  2576   45.00000   40   20   48.00000   45.00000  6.25%  52.2  167s
 50883  2529   45.00000   41   21   48.00000   45.00000  6.25%  52.2  170s
 52201  2628   45.00000   40   32   48.00000   45.00000  6.25%  52.4  176s
 54367  2606 infeasible   45        48.00000   45.00000  6.25%  53.2  183s
 54526  2785 infeasible   45        48.00000   45.00000  6.25%  53.2  186s
 55993  2800   45.00000   51   22   48.00000   45.00000  6.25%  53.2  190s
 56774  2638 infeasible   39        48.00000   45.00000  6.25%  53.5  197s
 58292  2626 infeasible   45        48.00000   45.00000  6.25%  53.8  202s
 59343  2658   45.00000   44    7   48.00000   45.00000  6.25%  54.1  212s
 63896  2674 infeasible   57        48.00000   45.00000  6.25%  54.7  217s
 63958  3003   46.00000   56   36   48.00000   45.00000  6.25%  54.7  221s
 66155  3007 infeasible   44        48.00000   45.00000  6.25%  54.5  227s
 66189  2483 infeasible   44        48.00000   45.00000  6.25%  54.5  231s
 68620  2484   46.00000   42   17   48.00000   45.00000  6.25%  54.6  238s
 68652  2365   46.00000   43   23   48.00000   45.00000  6.25%  54.6  242s
 71261  2367   46.00000   38   40   48.00000   46.00000  4.17%  54.5  249s
 71302  2111 infeasible   39        48.00000   46.00000  4.17%  54.5  253s
 73332  2158 infeasible   53        48.00000   46.00000  4.17%  54.2  259s
 73538  2158   46.00000   41   18   48.00000   46.00000  4.17%  54.2  260s
 74701  2034 infeasible   47        48.00000   46.00000  4.17%  54.1  269s
 78140  1999 infeasible   44        48.00000   46.00000  4.17%  54.2  276s
 78765  2005   46.00000   46   20   48.00000   46.00000  4.17%  54.1  281s
 78937  2006 infeasible   41        48.00000   46.00000  4.17%  54.1  285s
 81443  1965   46.00000   51   17   48.00000   46.00000  4.17%  53.5  293s
 82140  1673   46.00000   52   23   48.00000   46.00000  4.17%  53.6  317s
 89230  1674 infeasible   41        48.00000   46.00000  4.17%  53.7  324s
 89263  1538 infeasible   51        48.00000   46.00000  4.17%  53.7  335s
 93491  1537 infeasible   44        48.00000   46.00000  4.17%  53.6  342s
 93527  1422   46.00000   43   32   48.00000   46.00000  4.17%  53.6  347s
 96124  1419 infeasible   42        48.00000   46.00000  4.17%  53.6  353s
 96159  1295 infeasible   47        48.00000   46.00000  4.17%  53.6  356s
 97127  1311   46.00000   42   22   48.00000   46.00000  4.17%  53.4  361s
 97395  1260 infeasible   50        48.00000   46.00000  4.17%  53.4  365s
 98907  1015   47.00000   38   39   48.00000   46.00000  4.17%  53.2  374s
 99395   693 infeasible   43        48.00000   46.00000  4.17%  53.2  378s
 100791   697 infeasible   39        48.00000   46.00000  4.17%  53.1  384s
 101043   636   47.00000   40   64   48.00000   46.00000  4.17%  53.1  388s
 102585   438 infeasible   45        48.00000   47.00000  2.08%  53.0  392s
 103367    95 infeasible   45        48.00000   47.00000  2.08%  53.0  395s
 104704    90   47.00000   35   45   48.00000   47.00000  2.08%  52.8  400s
 105290    14 infeasible   42        48.00000   47.00000  2.08%  52.8  407s
 105456     0 infeasible   41        48.00000   47.00000  2.08%  52.7  410s

Cutting planes:
  Learned: 2571
  Gomory: 6
  Cover: 60
  Implied bound: 5
  Clique: 21
  MIR: 62
  StrongCG: 14
  Flow cover: 167
  Mod-K: 1
  Relax-and-lift: 49

Explored 105484 nodes (5613735 simplex iterations) in 410.95 seconds (252.65 work units)
Thread count was 18 (of 36 available processors)

Solution count 10: 48 48 49 ... 66

Optimal solution found (tolerance 1.00e-04)
Best objective 4.800000000000e+01, best bound 4.800000000000e+01, gap 0.0000%
